NAME 
ROWS
 N  OBJ
 L  R0      
 L  R1      
 E  R2      
 E  R3      
 E  R4      
 E  R5      
 E  R6      
 E  R7      
 E  R8      
 E  R9      
 E  R10     
 E  R11     
COLUMNS
    MARKER    'MARKER'                 'INTORG'
    I0(8)     OBJ       -100
    I0(8)     R0        -39
    I0(8)     R1        -108
    I0(8)     R2        7
    I0(8)     R3        5
    I0(8)     R4        2
    I0(8)     R5        3
    I0(8)     R6        14
    I0(8)     R11       1
    I1(7)     OBJ       130
    I1(7)     R0        -94
    I1(7)     R1        -96
    I1(7)     R2        19
    I1(7)     R3        10
    I1(7)     R4        6
    I1(7)     R5        2
    I1(7)     R11       1
    I2(7)     OBJ       31
    I2(7)     R0        -179
    I2(7)     R1        -78
    I2(7)     R3        15
    I2(7)     R4        11
    I2(7)     R5        10
    I2(7)     R6        17
    I2(7)     R11       1
    I3(6)     OBJ       -101
    I3(6)     R0        -55
    I3(6)     R1        -101
    I3(6)     R2        2
    I3(6)     R4        14
    I3(6)     R6        4
    I3(6)     R11       1
    I4(7)     OBJ       -71
    I4(7)     R0        -126
    I4(7)     R1        -20
    I4(7)     R2        18
    I4(7)     R3        9
    I4(7)     R5        9
    I4(7)     R6        4
    I4(7)     R11       1
    MARKER    'MARKER'                 'INTEND'
    C5(6)     OBJ       7
    C5(6)     R0        -1
    C5(6)     R1        2
    C5(6)     R2        12
    C5(6)     R4        12
    C5(6)     R6        11
    C5(6)     R9        18
    C6(7)     OBJ       -2
    C6(7)     R0        -8
    C6(7)     R1        -6
    C6(7)     R3        11
    C6(7)     R4        1
    C6(7)     R5        9
    C6(7)     R7        2
    C6(7)     R10       1
    C7(7)     OBJ       -2
    C7(7)     R0        -4
    C7(7)     R1        -8
    C7(7)     R2        19
    C7(7)     R3        -1
    C7(7)     R4        8
    C7(7)     R7        5
    C7(7)     R10       -1
    C8(7)     R0        -7
    C8(7)     R1        -4
    C8(7)     R2        11
    C8(7)     R3        18
    C8(7)     R4        10
    C8(7)     R6        1
    C8(7)     R9        1
    C9(8)     OBJ       -6
    C9(8)     R0        9
    C9(8)     R1        9
    C9(8)     R2        10
    C9(8)     R4        17
    C9(8)     R6        14
    C9(8)     R8        6
    C9(8)     R9        11
    C9(8)     R10       15
    C10(1)    R2        1
    C11(1)    R3        1
    C12(1)    R4        1
    C13(1)    R5        1
    C14(1)    R6        1
    C15(1)    R7        1
    C16(1)    R8        1
    C17(1)    R9        1
    C18(1)    R10       1
    C19(1)    R11       1
RHS
    RHS1      R0        -4.6839572192513238e+01
    RHS1      R1        -1.0456684491978598e+02
    RHS1      R2        57
    RHS1      R3        67
    RHS1      R4        78
    RHS1      R5        73
    RHS1      R6        95
    RHS1      R7        72
    RHS1      R8        98
    RHS1      R9        66
    RHS1      R10       71
    RHS1      R11       1
BOUNDS
 UP BND1      I0(8)     1
 UP BND1      I1(7)     1
 UP BND1      I2(7)     1
 UP BND1      I3(6)     1
 UP BND1      I4(7)     1
ENDATA
